NAME 
ROWS
 N  OBJ
 L  R0      
 L  R1      
 L  R2      
 L  R3      
 E  R4      
COLUMNS
    MARKER    'MARKER'                 'INTORG'
    I0(5)     OBJ       -316
    I0(5)     R0        -671
    I0(5)     R1        -451
    I0(5)     R2        -803
    I0(5)     R3        -959
    I0(5)     R4        156
    I1(5)     OBJ       -285
    I1(5)     R0        -359
    I1(5)     R1        -812
    I1(5)     R2        -413
    I1(5)     R3        -672
    I1(5)     R4        150
    I2(5)     OBJ       -241
    I2(5)     R0        -209
    I2(5)     R1        -457
    I2(5)     R2        -842
    I2(5)     R3        -327
    I2(5)     R4        358
    I3(5)     OBJ       -485
    I3(5)     R0        -535
    I3(5)     R1        -37
    I3(5)     R2        -860
    I3(5)     R3        -30
    I3(5)     R4        664
    I4(5)     OBJ       -376
    I4(5)     R0        -385
    I4(5)     R1        -443
    I4(5)     R2        -150
    I4(5)     R3        -52
    I4(5)     R4        853
    I5(5)     OBJ       -54
    I5(5)     R0        -845
    I5(5)     R1        -71
    I5(5)     R2        -292
    I5(5)     R3        -474
    I5(5)     R4        156
    I6(5)     OBJ       -571
    I6(5)     R0        -884
    I6(5)     R1        -448
    I6(5)     R2        -294
    I6(5)     R3        -484
    I6(5)     R4        614
    I7(5)     OBJ       -971
    I7(5)     R0        -462
    I7(5)     R1        -551
    I7(5)     R2        -941
    I7(5)     R3        -277
    I7(5)     R4        625
    I8(5)     OBJ       -516
    I8(5)     R0        -651
    I8(5)     R1        -942
    I8(5)     R2        -312
    I8(5)     R3        -504
    I8(5)     R4        403
    I9(5)     OBJ       -430
    I9(5)     R0        -773
    I9(5)     R1        -713
    I9(5)     R2        -697
    I9(5)     R3        -401
    I9(5)     R4        114
    I10(5)    OBJ       -409
    I10(5)    R0        -497
    I10(5)    R1        -172
    I10(5)    R2        -247
    I10(5)    R3        -152
    I10(5)    R4        340
    I11(5)    OBJ       -151
    I11(5)    R0        -967
    I11(5)    R1        -613
    I11(5)    R2        -762
    I11(5)    R3        -307
    I11(5)    R4        361
    I12(5)    OBJ       -587
    I12(5)    R0        -58
    I12(5)    R1        -71
    I12(5)    R2        -508
    I12(5)    R3        -814
    I12(5)    R4        786
    I13(5)    OBJ       -632
    I13(5)    R0        -737
    I13(5)    R1        -380
    I13(5)    R2        -703
    I13(5)    R3        -993
    I13(5)    R4        666
    I14(5)    OBJ       -614
    I14(5)    R0        -451
    I14(5)    R1        -147
    I14(5)    R2        -799
    I14(5)    R3        -167
    I14(5)    R4        390
    I15(5)    OBJ       -412
    I15(5)    R0        -434
    I15(5)    R1        -455
    I15(5)    R2        -951
    I15(5)    R3        -963
    I15(5)    R4        838
    I16(5)    OBJ       -108
    I16(5)    R0        -791
    I16(5)    R1        -225
    I16(5)    R2        -773
    I16(5)    R3        -284
    I16(5)    R4        140
    I17(5)    OBJ       -872
    I17(5)    R0        -21
    I17(5)    R1        -31
    I17(5)    R2        -247
    I17(5)    R3        -460
    I17(5)    R4        874
    I18(5)    OBJ       -265
    I18(5)    R0        -404
    I18(5)    R1        -917
    I18(5)    R2        -501
    I18(5)    R3        -904
    I18(5)    R4        115
    I19(5)    OBJ       -622
    I19(5)    R0        -307
    I19(5)    R1        -875
    I19(5)    R2        -715
    I19(5)    R3        -596
    I19(5)    R4        644
    I20(1)    R4        1
    MARKER    'MARKER'                 'INTEND'
RHS
    RHS1      R0        -6124
    RHS1      R1        -6216
    RHS1      R2        -7151
    RHS1      R3        -6369
    RHS1      R4        4623
BOUNDS
 UP BND1      I0(5)     1
 UP BND1      I1(5)     1
 UP BND1      I2(5)     1
 UP BND1      I3(5)     1
 UP BND1      I4(5)     1
 UP BND1      I5(5)     1
 UP BND1      I6(5)     1
 UP BND1      I7(5)     1
 UP BND1      I8(5)     1
 UP BND1      I9(5)     1
 UP BND1      I10(5)    1
 UP BND1      I11(5)    1
 UP BND1      I12(5)    1
 UP BND1      I13(5)    1
 UP BND1      I14(5)    1
 UP BND1      I15(5)    1
 UP BND1      I16(5)    1
 UP BND1      I17(5)    1
 UP BND1      I18(5)    1
 UP BND1      I19(5)    1
 LI BND1      I20(1)    0
ENDATA
